benchmarks_CP/INST_36x36/55/inst36x36_55_23.dzn
S=6;
start=[|
-1,	-1,	-1,	-1,	-1,	-1,	20,	17,	-1,	-1,	6,	30,	-1,	22,	-1,	23,	-1,	-1,	4,	1,	8,	10,	-1,	-1,	-1,	35,	-1,	32,	21,	-1,	-1,	13,	-1,	-1,	-1,	-1|
-1,	21,	5,	-1,	19,	-1,	29,	25,	-1,	-1,	-1,	35,	13,	17,	-1,	-1,	-1,	20,	22,	16,	6,	-1,	-1,	9,	-1,	-1,	-1,	26,	-1,	4,	3,	32,	-1,	30,	31,	34|
-1,	-1,	3,	-1,	31,	-1,	32,	-1,	-1,	-1,	-1,	12,	10,	-1,	-1,	-1,	-1,	11,	34,	-1,	-1,	-1,	-1,	-1,	8,	-1,	-1,	33,	-1,	-1,	-1,	21,	9,	-1,	-1,	5|
10,	-1,	-1,	34,	7,	16,	-1,	21,	18,	-1,	31,	-1,	-1,	33,	28,	1,	5,	29,	20,	-1,	32,	12,	-1,	-1,	19,	-1,	-1,	-1,	-1,	15,	-1,	23,	-1,	6,	-1,	-1|
-1,	-1,	-1,	35,	-1,	-1,	26,	19,	33,	2,	8,	5,	-1,	-1,	-1,	31,	24,	21,	23,	13,	-1,	-1,	-1,	-1,	34,	-1,	-1,	22,	18,	6,	1,	-1,	17,	36,	10,	-1|
11,	22,	33,	4,	24,	8,	-1,	-1,	-1,	9,	36,	-1,	6,	-1,	-1,	18,	32,	26,	-1,	-1,	17,	-1,	-1,	25,	23,	3,	1,	-1,	-1,	-1,	14,	28,	20,	-1,	15,	-1|
-1,	-1,	32,	19,	-1,	13,	30,	-1,	-1,	-1,	21,	18,	33,	-1,	-1,	-1,	-1,	2,	-1,	12,	20,	3,	8,	14,	25,	-1,	29,	35,	6,	-1,	22,	-1,	15,	10,	34,	9|
-1,	30,	-1,	28,	1,	22,	14,	31,	24,	-1,	-1,	6,	12,	35,	21,	-1,	-1,	15,	32,	-1,	-1,	36,	13,	-1,	2,	34,	3,	-1,	8,	5,	25,	-1,	23,	27,	4,	33|
-1,	10,	-1,	-1,	-1,	29,	9,	-1,	-1,	-1,	-1,	-1,	-1,	26,	3,	13,	14,	27,	-1,	-1,	25,	28,	22,	18,	-1,	23,	30,	31,	1,	36,	-1,	-1,	8,	32,	5,	24|
21,	2,	-1,	-1,	-1,	-1,	3,	-1,	-1,	-1,	22,	-1,	25,	-1,	30,	-1,	-1,	5,	33,	-1,	-1,	1,	19,	-1,	11,	-1,	-1,	15,	-1,	9,	29,	31,	-1,	-1,	36,	-1|
-1,	5,	25,	-1,	36,	33,	1,	23,	16,	29,	-1,	-1,	20,	24,	-1,	-1,	8,	18,	21,	27,	-1,	-1,	6,	-1,	-1,	-1,	14,	28,	32,	22,	-1,	-1,	3,	26,	12,	-1|
-1,	3,	-1,	-1,	-1,	-1,	-1,	12,	-1,	-1,	-1,	36,	31,	-1,	11,	-1,	22,	23,	24,	-1,	7,	5,	17,	34,	-1,	-1,	-1,	21,	-1,	-1,	2,	19,	28,	1,	30,	-1|
-1,	16,	-1,	-1,	-1,	-1,	12,	-1,	-1,	28,	33,	-1,	18,	-1,	-1,	36,	-1,	-1,	27,	-1,	14,	32,	-1,	-1,	26,	25,	2,	-1,	11,	34,	35,	1,	19,	-1,	24,	-1|
-1,	-1,	-1,	-1,	-1,	-1,	22,	-1,	9,	18,	17,	-1,	-1,	-1,	16,	-1,	33,	31,	-1,	15,	-1,	19,	20,	8,	35,	1,	12,	24,	4,	27,	23,	2,	-1,	-1,	7,	-1|
18,	7,	14,	32,	-1,	9,	23,	-1,	-1,	13,	34,	-1,	3,	2,	-1,	-1,	-1,	-1,	11,	36,	35,	-1,	1,	-1,	15,	-1,	-1,	-1,	20,	-1,	28,	-1,	31,	12,	-1,	27|
4,	-1,	-1,	-1,	-1,	2,	5,	-1,	14,	-1,	19,	-1,	7,	-1,	-1,	27,	29,	35,	-1,	26,	-1,	23,	25,	24,	22,	36,	-1,	13,	10,	30,	-1,	6,	11,	-1,	17,	-1|
8,	-1,	20,	-1,	27,	-1,	4,	15,	-1,	30,	16,	31,	-1,	19,	23,	-1,	6,	1,	12,	-1,	33,	2,	-1,	10,	14,	17,	32,	29,	-1,	-1,	26,	-1,	18,	34,	-1,	36|
31,	35,	-1,	36,	23,	19,	-1,	10,	-1,	26,	27,	-1,	11,	-1,	13,	-1,	-1,	12,	-1,	34,	-1,	16,	3,	5,	18,	-1,	7,	-1,	28,	33,	-1,	25,	-1,	21,	-1,	32|
35,	-1,	36,	-1,	-1,	20,	31,	-1,	-1,	1,	-1,	-1,	-1,	10,	8,	-1,	12,	-1,	15,	17,	-1,	25,	14,	-1,	28,	18,	9,	-1,	-1,	11,	-1,	29,	-1,	4,	-1,	23|
17,	15,	-1,	13,	32,	18,	21,	-1,	4,	16,	-1,	29,	23,	20,	24,	-1,	26,	36,	35,	9,	-1,	-1,	-1,	-1,	-1,	-1,	-1,	5,	7,	12,	-1,	-1,	-1,	28,	19,	1|
19,	31,	-1,	-1,	-1,	-1,	18,	30,	23,	15,	5,	2,	-1,	21,	-1,	-1,	7,	-1,	1,	-1,	-1,	-1,	28,	12,	36,	13,	-1,	34,	-1,	10,	17,	20,	-1,	-1,	33,	26|
14,	-1,	-1,	-1,	34,	10,	-1,	-1,	27,	-1,	-1,	-1,	5,	-1,	17,	-1,	-1,	28,	-1,	33,	-1,	7,	-1,	-1,	6,	-1,	4,	3,	19,	31,	16,	-1,	-1,	18,	21,	30|
33,	27,	28,	30,	29,	25,	-1,	-1,	-1,	14,	32,	10,	1,	18,	34,	-1,	-1,	-1,	-1,	5,	-1,	22,	16,	19,	17,	8,	23,	20,	-1,	-1,	-1,	9,	6,	11,	35,	-1|
-1,	4,	-1,	5,	26,	23,	17,	20,	-1,	36,	-1,	33,	-1,	-1,	-1,	-1,	19,	-1,	13,	-1,	34,	18,	21,	11,	-1,	-1,	35,	-1,	14,	32,	-1,	10,	-1,	15,	3,	-1|
-1,	32,	2,	16,	-1,	-1,	-1,	-1,	3,	19,	-1,	22,	-1,	27,	36,	11,	-1,	14,	-1,	-1,	-1,	13,	4,	-1,	7,	12,	-1,	6,	29,	25,	-1,	-1,	34,	23,	-1,	18|
3,	-1,	-1,	20,	-1,	-1,	28,	16,	-1,	25,	23,	-1,	-1,	4,	33,	29,	1,	34,	-1,	-1,	36,	-1,	-1,	-1,	-1,	-1,	-1,	30,	-1,	14,	6,	-1,	-1,	-1,	-1,	-1|
27,	36,	11,	-1,	6,	21,	8,	-1,	30,	4,	-1,	-1,	-1,	-1,	31,	10,	25,	13,	9,	22,	12,	-1,	-1,	-1,	20,	-1,	-1,	17,	23,	-1,	33,	15,	5,	-1,	14,	-1|
-1,	-1,	-1,	15,	-1,	-1,	34,	-1,	32,	11,	29,	-1,	-1,	16,	-1,	26,	17,	7,	-1,	14,	-1,	33,	-1,	-1,	3,	31,	24,	-1,	35,	-1,	-1,	-1,	1,	13,	20,	-1|
5,	14,	-1,	23,	33,	-1,	-1,	-1,	36,	31,	24,	-1,	35,	12,	18,	-1,	28,	19,	-1,	20,	16,	29,	11,	1,	9,	22,	-1,	-1,	-1,	-1,	4,	-1,	21,	-1,	-1,	17|
12,	-1,	31,	29,	-1,	30,	15,	14,	17,	35,	7,	-1,	8,	-1,	32,	-1,	23,	-1,	10,	25,	21,	-1,	18,	27,	33,	4,	26,	-1,	-1,	-1,	-1,	3,	24,	-1,	16,	2|
2,	17,	27,	12,	3,	-1,	-1,	18,	-1,	6,	14,	4,	-1,	1,	20,	5,	-1,	-1,	-1,	-1,	9,	24,	-1,	13,	-1,	15,	34,	25,	31,	23,	-1,	-1,	-1,	-1,	28,	-1|
28,	-1,	-1,	1,	20,	-1,	19,	-1,	29,	34,	30,	23,	26,	11,	9,	-1,	2,	-1,	25,	-1,	15,	17,	-1,	22,	-1,	7,	-1,	-1,	12,	-1,	32,	-1,	36,	-1,	-1,	21|
25,	19,	35,	22,	-1,	-1,	16,	-1,	5,	-1,	13,	20,	27,	23,	-1,	-1,	36,	8,	14,	-1,	11,	31,	32,	-1,	24,	-1,	-1,	18,	-1,	-1,	-1,	-1,	-1,	-1,	-1,	-1|
6,	24,	7,	11,	-1,	-1,	-1,	35,	-1,	-1,	26,	28,	19,	-1,	-1,	17,	15,	-1,	18,	29,	-1,	21,	12,	-1,	-1,	-1,	-1,	-1,	36,	13,	-1,	5,	-1,	-1,	-1,	-1|
-1,	33,	-1,	-1,	10,	-1,	36,	24,	31,	-1,	1,	15,	4,	-1,	29,	12,	18,	32,	-1,	3,	23,	-1,	-1,	-1,	16,	-1,	-1,	19,	-1,	-1,	34,	14,	-1,	-1,	-1,	13|
-1,	29,	-1,	9,	16,	-1,	7,	27,	-1,	-1,	-1,	32,	14,	-1,	35,	6,	-1,	-1,	30,	-1,	-1,	-1,	34,	33,	-1,	28,	-1,	-1,	-1,	-1,	11,	-1,	-1,	2,	18,	-1|];
